p tw 1280 19201 7 
1 8 
1 541 
2 9 
2 10 
2 542 
3 7 
3 10 
3 931 
4 8 
4 9 
4 932 
5 7 
5 9 
5 1161 
6 8 
6 10 
6 1162 
11 17 
11 18 
11 41 
12 19 
12 20 
12 42 
13 17 
13 20 
13 121 
14 18 
14 19 
14 122 
15 17 
15 19 
15 281 
16 18 
16 20 
16 282 
21 27 
21 28 
21 611 
22 29 
22 30 
22 612 
23 27 
23 30 
23 771 
24 28 
24 29 
24 772 
25 27 
25 29 
25 1041 
26 28 
26 30 
26 1042 
31 37 
31 38 
31 321 
32 39 
32 40 
32 322 
33 37 
33 40 
33 381 
34 38 
34 39 
34 382 
35 37 
35 39 
35 1081 
36 38 
36 40 
36 1082 
41 47 
41 48 
42 49 
42 50 
43 47 
43 50 
43 251 
44 48 
44 49 
44 252 
45 47 
45 49 
45 671 
46 48 
46 50 
46 672 
51 57 
51 58 
51 221 
52 59 
52 60 
52 222 
53 57 
53 60 
53 501 
54 58 
54 59 
54 502 
55 57 
55 59 
55 741 
56 58 
56 60 
56 742 
61 67 
61 68 
61 441 
62 69 
62 70 
62 442 
63 67 
63 70 
63 941 
64 68 
64 69 
64 942 
65 67 
65 69 
65 1043 
66 68 
66 70 
66 1044 
71 77 
71 78 
71 371 
72 79 
72 80 
72 372 
73 77 
73 80 
73 981 
74 78 
74 79 
74 982 
75 77 
75 79 
75 1251 
76 78 
76 80 
76 1252 
81 87 
81 88 
81 271 
82 89 
82 90 
82 272 
83 87 
83 90 
83 301 
84 88 
84 89 
84 302 
85 87 
85 89 
85 773 
86 88 
86 90 
86 774 
91 97 
91 98 
91 341 
92 99 
92 100 
92 342 
93 97 
93 100 
93 461 
94 98 
94 99 
94 462 
95 97 
95 99 
95 911 
96 98 
96 100 
96 912 
101 107 
101 108 
101 181 
102 109 
102 110 
102 182 
103 107 
103 110 
103 731 
104 108 
104 109 
104 732 
105 107 
105 109 
105 1181 
106 108 
106 110 
106 1182 
111 117 
111 118 
111 861 
112 119 
112 120 
112 862 
113 117 
113 120 
113 991 
114 118 
114 119 
114 992 
115 117 
115 119 
115 1201 
116 118 
116 120 
116 1202 
121 127 
121 128 
122 129 
122 130 
123 127 
123 130 
123 303 
124 128 
124 129 
124 304 
125 127 
125 129 
125 921 
126 128 
126 130 
126 922 
131 137 
131 138 
131 273 
132 139 
132 140 
132 274 
133 137 
133 140 
133 361 
134 138 
134 139 
134 362 
135 137 
135 139 
135 1271 
136 138 
136 140 
136 1272 
141 147 
141 148 
141 601 
142 149 
142 150 
142 602 
143 147 
143 150 
143 811 
144 148 
144 149 
144 812 
145 147 
145 149 
145 1241 
146 148 
146 150 
146 1242 
151 157 
151 158 
151 291 
152 159 
152 160 
152 292 
153 157 
153 160 
153 581 
154 158 
154 159 
154 582 
155 157 
155 159 
155 631 
156 158 
156 160 
156 632 
161 167 
161 168 
161 201 
162 169 
162 170 
162 202 
163 167 
163 170 
163 651 
164 168 
164 169 
164 652 
165 167 
165 169 
165 1111 
166 168 
166 170 
166 1112 
171 177 
171 178 
171 661 
172 179 
172 180 
172 662 
173 177 
173 180 
173 691 
174 178 
174 179 
174 692 
175 177 
175 179 
175 1171 
176 178 
176 180 
176 1172 
181 187 
181 188 
182 189 
182 190 
183 187 
183 190 
183 943 
184 188 
184 189 
184 944 
185 187 
185 189 
185 961 
186 188 
186 190 
186 962 
191 197 
191 198 
191 851 
192 199 
192 200 
192 852 
193 197 
193 200 
193 963 
194 198 
194 199 
194 964 
195 197 
195 199 
195 1051 
196 198 
196 200 
196 1052 
201 207 
201 208 
202 209 
202 210 
203 207 
203 210 
203 841 
204 208 
204 209 
204 842 
205 207 
205 209 
205 993 
206 208 
206 210 
206 994 
211 217 
211 218 
211 231 
212 219 
212 220 
212 232 
213 217 
213 220 
213 813 
214 218 
214 219 
214 814 
215 217 
215 219 
215 923 
216 218 
216 220 
216 924 
221 227 
221 228 
222 229 
222 230 
223 227 
223 230 
223 253 
224 228 
224 229 
224 254 
225 227 
225 229 
225 1221 
226 228 
226 230 
226 1222 
231 237 
231 238 
232 239 
232 240 
233 237 
233 240 
233 561 
234 238 
234 239 
234 562 
235 237 
235 239 
235 583 
236 238 
236 240 
236 584 
241 247 
241 248 
241 421 
242 249 
242 250 
242 422 
243 247 
243 250 
243 663 
244 248 
244 249 
244 664 
245 247 
245 249 
245 1273 
246 248 
246 250 
246 1274 
251 257 
251 258 
252 259 
252 260 
253 257 
253 260 
254 258 
254 259 
255 257 
255 259 
255 871 
256 258 
256 260 
256 872 
261 267 
261 268 
261 311 
262 269 
262 270 
262 312 
263 267 
263 270 
263 503 
264 268 
264 269 
264 504 
265 267 
265 269 
265 801 
266 268 
266 270 
266 802 
271 277 
271 278 
272 279 
272 280 
273 277 
273 280 
274 278 
274 279 
275 277 
275 279 
275 481 
276 278 
276 280 
276 482 
281 287 
281 288 
282 289 
282 290 
283 287 
283 290 
283 391 
284 288 
284 289 
284 392 
285 287 
285 289 
285 951 
286 288 
286 290 
286 952 
291 297 
291 298 
292 299 
292 300 
293 297 
293 300 
293 781 
294 298 
294 299 
294 782 
295 297 
295 299 
295 1045 
296 298 
296 300 
296 1046 
301 307 
301 308 
302 309 
302 310 
303 307 
303 310 
304 308 
304 309 
305 307 
305 309 
305 633 
306 308 
306 310 
306 634 
311 317 
311 318 
312 319 
312 320 
313 317 
313 320 
313 791 
314 318 
314 319 
314 792 
315 317 
315 319 
315 1211 
316 318 
316 320 
316 1212 
321 327 
321 328 
322 329 
322 330 
323 327 
323 330 
323 373 
324 328 
324 329 
324 374 
325 327 
325 329 
325 901 
326 328 
326 330 
326 902 
331 337 
331 338 
331 375 
332 339 
332 340 
332 376 
333 337 
333 340 
333 471 
334 338 
334 339 
334 472 
335 337 
335 339 
335 613 
336 338 
336 340 
336 614 
341 347 
341 348 
342 349 
342 350 
343 347 
343 350 
343 591 
344 348 
344 349 
344 592 
345 347 
345 349 
345 743 
346 348 
346 350 
346 744 
351 357 
351 358 
351 491 
352 359 
352 360 
352 492 
353 357 
353 360 
353 653 
354 358 
354 359 
354 654 
355 357 
355 359 
355 1121 
356 358 
356 360 
356 1122 
361 367 
361 368 
362 369 
362 370 
363 367 
363 370 
363 881 
364 368 
364 369 
364 882 
365 367 
365 369 
365 1071 
366 368 
366 370 
366 1072 
371 377 
371 378 
372 379 
372 380 
373 377 
373 380 
374 378 
374 379 
375 377 
375 379 
376 378 
376 380 
381 387 
381 388 
382 389 
382 390 
383 387 
383 390 
383 615 
384 388 
384 389 
384 616 
385 387 
385 389 
385 641 
386 388 
386 390 
386 642 
391 397 
391 398 
392 399 
392 400 
393 397 
393 400 
393 423 
394 398 
394 399 
394 424 
395 397 
395 399 
395 701 
396 398 
396 400 
396 702 
401 407 
401 408 
401 733 
402 409 
402 410 
402 734 
403 407 
403 410 
403 783 
404 408 
404 409 
404 784 
405 407 
405 409 
405 1113 
406 408 
406 410 
406 1114 
411 417 
411 418 
411 831 
412 419 
412 420 
412 832 
413 417 
413 420 
413 1151 
414 418 
414 419 
414 1152 
415 417 
415 419 
415 1191 
416 418 
416 420 
416 1192 
421 427 
421 428 
422 429 
422 430 
423 427 
423 430 
424 428 
424 429 
425 427 
425 429 
425 891 
426 428 
426 430 
426 892 
431 437 
431 438 
431 903 
432 439 
432 440 
432 904 
433 437 
433 440 
433 1021 
434 438 
434 439 
434 1022 
435 437 
435 439 
435 1073 
436 438 
436 440 
436 1074 
441 447 
441 448 
442 449 
442 450 
443 447 
443 450 
443 571 
444 448 
444 449 
444 572 
445 447 
445 449 
445 643 
446 448 
446 450 
446 644 
451 457 
451 458 
451 593 
452 459 
452 460 
452 594 
453 457 
453 460 
453 693 
454 458 
454 459 
454 694 
455 457 
455 459 
455 883 
456 458 
456 460 
456 884 
461 467 
461 468 
462 469 
462 470 
463 467 
463 470 
463 965 
464 468 
464 469 
464 966 
465 467 
465 469 
465 971 
466 468 
466 470 
466 972 
471 477 
471 478 
472 479 
472 480 
473 477 
473 480 
473 563 
474 478 
474 479 
474 564 
475 477 
475 479 
475 681 
476 478 
476 480 
476 682 
481 487 
481 488 
482 489 
482 490 
483 487 
483 490 
483 1223 
484 488 
484 489 
484 1224 
485 487 
485 489 
485 1253 
486 488 
486 490 
486 1254 
491 497 
491 498 
492 499 
492 500 
493 497 
493 500 
493 751 
494 498 
494 499 
494 752 
495 497 
495 499 
495 1075 
496 498 
496 500 
496 1076 
501 507 
501 508 
502 509 
502 510 
503 507 
503 510 
504 508 
504 509 
505 507 
505 509 
505 761 
506 508 
506 510 
506 762 
511 517 
511 518 
511 821 
512 519 
512 520 
512 822 
513 517 
513 520 
513 995 
514 518 
514 519 
514 996 
515 517 
515 519 
515 1213 
516 518 
516 520 
516 1214 
521 527 
521 528 
521 721 
522 529 
522 530 
522 722 
523 527 
523 530 
523 893 
524 528 
524 529 
524 894 
525 527 
525 529 
525 1023 
526 528 
526 530 
526 1024 
531 537 
531 538 
531 695 
532 539 
532 540 
532 696 
533 537 
533 540 
533 775 
534 538 
534 539 
534 776 
535 537 
535 539 
535 933 
536 538 
536 540 
536 934 
541 547 
541 548 
542 549 
542 550 
543 547 
543 550 
543 603 
544 548 
544 549 
544 604 
545 547 
545 549 
545 1091 
546 548 
546 550 
546 1092 
551 557 
551 558 
551 621 
552 559 
552 560 
552 622 
553 557 
553 560 
553 823 
554 558 
554 559 
554 824 
555 557 
555 559 
555 973 
556 558 
556 560 
556 974 
561 567 
561 568 
562 569 
562 570 
563 567 
563 570 
564 568 
564 569 
565 567 
565 569 
565 745 
566 568 
566 570 
566 746 
571 577 
571 578 
572 579 
572 580 
573 577 
573 580 
573 913 
574 578 
574 579 
574 914 
575 577 
575 579 
575 1231 
576 578 
576 580 
576 1232 
581 587 
581 588 
582 589 
582 590 
583 587 
583 590 
584 588 
584 589 
585 587 
585 589 
585 1115 
586 588 
586 590 
586 1116 
591 597 
591 598 
592 599 
592 600 
593 597 
593 600 
594 598 
594 599 
595 597 
595 599 
595 1061 
596 598 
596 600 
596 1062 
601 607 
601 608 
602 609 
602 610 
603 607 
603 610 
604 608 
604 609 
605 607 
605 609 
605 1053 
606 608 
606 610 
606 1054 
611 617 
611 618 
612 619 
612 620 
613 617 
613 620 
614 618 
614 619 
615 617 
615 619 
616 618 
616 620 
621 627 
621 628 
622 629 
622 630 
623 627 
623 630 
623 753 
624 628 
624 629 
624 754 
625 627 
625 629 
625 1261 
626 628 
626 630 
626 1262 
631 637 
631 638 
632 639 
632 640 
633 637 
633 640 
634 638 
634 639 
635 637 
635 639 
635 863 
636 638 
636 640 
636 864 
641 647 
641 648 
642 649 
642 650 
643 647 
643 650 
644 648 
644 649 
645 647 
645 649 
645 711 
646 648 
646 650 
646 712 
651 657 
651 658 
652 659 
652 660 
653 657 
653 660 
654 658 
654 659 
655 657 
655 659 
655 1173 
656 658 
656 660 
656 1174 
661 667 
661 668 
662 669 
662 670 
663 667 
663 670 
664 668 
664 669 
665 667 
665 669 
665 1233 
666 668 
666 670 
666 1234 
671 677 
671 678 
672 679 
672 680 
673 677 
673 680 
673 1025 
674 678 
674 679 
674 1026 
675 677 
675 679 
675 1101 
676 678 
676 680 
676 1102 
681 687 
681 688 
682 689 
682 690 
683 687 
683 690 
683 983 
684 688 
684 689 
684 984 
685 687 
685 689 
685 1123 
686 688 
686 690 
686 1124 
691 697 
691 698 
692 699 
692 700 
693 697 
693 700 
694 698 
694 699 
695 697 
695 699 
696 698 
696 700 
701 707 
701 708 
702 709 
702 710 
703 707 
703 710 
703 763 
704 708 
704 709 
704 764 
705 707 
705 709 
705 1103 
706 708 
706 710 
706 1104 
711 717 
711 718 
712 719 
712 720 
713 717 
713 720 
713 793 
714 718 
714 719 
714 794 
715 717 
715 719 
715 1203 
716 718 
716 720 
716 1204 
721 727 
721 728 
722 729 
722 730 
723 727 
723 730 
723 915 
724 728 
724 729 
724 916 
725 727 
725 729 
725 1141 
726 728 
726 730 
726 1142 
731 737 
731 738 
732 739 
732 740 
733 737 
733 740 
734 738 
734 739 
735 737 
735 739 
735 1143 
736 738 
736 740 
736 1144 
741 747 
741 748 
742 749 
742 750 
743 747 
743 750 
744 748 
744 749 
745 747 
745 749 
746 748 
746 750 
751 757 
751 758 
752 759 
752 760 
753 757 
753 760 
754 758 
754 759 
755 757 
755 759 
755 833 
756 758 
756 760 
756 834 
761 767 
761 768 
762 769 
762 770 
763 767 
763 770 
764 768 
764 769 
765 767 
765 769 
765 873 
766 768 
766 770 
766 874 
771 777 
771 778 
772 779 
772 780 
773 777 
773 780 
774 778 
774 779 
775 777 
775 779 
776 778 
776 780 
781 787 
781 788 
782 789 
782 790 
783 787 
783 790 
784 788 
784 789 
785 787 
785 789 
785 1193 
786 788 
786 790 
786 1194 
791 797 
791 798 
792 799 
792 800 
793 797 
793 800 
794 798 
794 799 
795 797 
795 799 
795 1011 
796 798 
796 800 
796 1012 
801 807 
801 808 
802 809 
802 810 
803 807 
803 810 
803 953 
804 808 
804 809 
804 954 
805 807 
805 809 
805 1163 
806 808 
806 810 
806 1164 
811 817 
811 818 
812 819 
812 820 
813 817 
813 820 
814 818 
814 819 
815 817 
815 819 
815 1131 
816 818 
816 820 
816 1132 
821 827 
821 828 
822 829 
822 830 
823 827 
823 830 
824 828 
824 829 
825 827 
825 829 
825 875 
826 828 
826 830 
826 876 
831 837 
831 838 
832 839 
832 840 
833 837 
833 840 
834 838 
834 839 
835 837 
835 839 
835 1263 
836 838 
836 840 
836 1264 
841 847 
841 848 
842 849 
842 850 
843 847 
843 850 
843 885 
844 848 
844 849 
844 886 
845 847 
845 849 
845 1183 
846 848 
846 850 
846 1184 
851 857 
851 858 
852 859 
852 860 
853 857 
853 860 
853 955 
854 858 
854 859 
854 956 
855 857 
855 859 
855 1243 
856 858 
856 860 
856 1244 
861 867 
861 868 
862 869 
862 870 
863 867 
863 870 
864 868 
864 869 
865 867 
865 869 
865 1133 
866 868 
866 870 
866 1134 
871 877 
871 878 
872 879 
872 880 
873 877 
873 880 
874 878 
874 879 
875 877 
875 879 
876 878 
876 880 
881 887 
881 888 
882 889 
882 890 
883 887 
883 890 
884 888 
884 889 
885 887 
885 889 
886 888 
886 890 
891 897 
891 898 
892 899 
892 900 
893 897 
893 900 
894 898 
894 899 
895 897 
895 899 
895 1083 
896 898 
896 900 
896 1084 
901 907 
901 908 
902 909 
902 910 
903 907 
903 910 
904 908 
904 909 
905 907 
905 909 
905 1031 
906 908 
906 910 
906 1032 
911 917 
911 918 
912 919 
912 920 
913 917 
913 920 
914 918 
914 919 
915 917 
915 919 
916 918 
916 920 
921 927 
921 928 
922 929 
922 930 
923 927 
923 930 
924 928 
924 929 
925 927 
925 929 
925 935 
926 928 
926 930 
926 936 
931 937 
931 938 
932 939 
932 940 
933 937 
933 940 
934 938 
934 939 
935 937 
935 939 
936 938 
936 940 
941 947 
941 948 
942 949 
942 950 
943 947 
943 950 
944 948 
944 949 
945 947 
945 949 
945 1235 
946 948 
946 950 
946 1236 
951 957 
951 958 
952 959 
952 960 
953 957 
953 960 
954 958 
954 959 
955 957 
955 959 
956 958 
956 960 
961 967 
961 968 
962 969 
962 970 
963 967 
963 970 
964 968 
964 969 
965 967 
965 969 
966 968 
966 970 
971 977 
971 978 
972 979 
972 980 
973 977 
973 980 
974 978 
974 979 
975 977 
975 979 
975 1001 
976 978 
976 980 
976 1002 
981 987 
981 988 
982 989 
982 990 
983 987 
983 990 
984 988 
984 989 
985 987 
985 989 
985 1093 
986 988 
986 990 
986 1094 
991 997 
991 998 
992 999 
992 1000 
993 997 
993 1000 
994 998 
994 999 
995 997 
995 999 
996 998 
996 1000 
1001 1007 
1001 1008 
1002 1009 
1002 1010 
1003 1007 
1003 1010 
1003 1145 
1004 1008 
1004 1009 
1004 1146 
1005 1007 
1005 1009 
1005 1153 
1006 1008 
1006 1010 
1006 1154 
1011 1017 
1011 1018 
1012 1019 
1012 1020 
1013 1017 
1013 1020 
1013 1165 
1014 1018 
1014 1019 
1014 1166 
1015 1017 
1015 1019 
1015 1255 
1016 1018 
1016 1020 
1016 1256 
1021 1027 
1021 1028 
1022 1029 
1022 1030 
1023 1027 
1023 1030 
1024 1028 
1024 1029 
1025 1027 
1025 1029 
1026 1028 
1026 1030 
1031 1037 
1031 1038 
1032 1039 
1032 1040 
1033 1037 
1033 1040 
1033 1155 
1034 1038 
1034 1039 
1034 1156 
1035 1037 
1035 1039 
1035 1225 
1036 1038 
1036 1040 
1036 1226 
1041 1047 
1041 1048 
1042 1049 
1042 1050 
1043 1047 
1043 1050 
1044 1048 
1044 1049 
1045 1047 
1045 1049 
1046 1048 
1046 1050 
1051 1057 
1051 1058 
1052 1059 
1052 1060 
1053 1057 
1053 1060 
1054 1058 
1054 1059 
1055 1057 
1055 1059 
1055 1063 
1056 1058 
1056 1060 
1056 1064 
1061 1067 
1061 1068 
1062 1069 
1062 1070 
1063 1067 
1063 1070 
1064 1068 
1064 1069 
1065 1067 
1065 1069 
1065 1275 
1066 1068 
1066 1070 
1066 1276 
1071 1077 
1071 1078 
1072 1079 
1072 1080 
1073 1077 
1073 1080 
1074 1078 
1074 1079 
1075 1077 
1075 1079 
1076 1078 
1076 1080 
1081 1087 
1081 1088 
1082 1089 
1082 1090 
1083 1087 
1083 1090 
1084 1088 
1084 1089 
1085 1087 
1085 1089 
1085 1185 
1086 1088 
1086 1090 
1086 1186 
1091 1097 
1091 1098 
1092 1099 
1092 1100 
1093 1097 
1093 1100 
1094 1098 
1094 1099 
1095 1097 
1095 1099 
1095 1265 
1096 1098 
1096 1100 
1096 1266 
1101 1107 
1101 1108 
1102 1109 
1102 1110 
1103 1107 
1103 1110 
1104 1108 
1104 1109 
1105 1107 
1105 1109 
1105 1215 
1106 1108 
1106 1110 
1106 1216 
1111 1117 
1111 1118 
1112 1119 
1112 1120 
1113 1117 
1113 1120 
1114 1118 
1114 1119 
1115 1117 
1115 1119 
1116 1118 
1116 1120 
1121 1127 
1121 1128 
1122 1129 
1122 1130 
1123 1127 
1123 1130 
1124 1128 
1124 1129 
1125 1127 
1125 1129 
1125 1195 
1126 1128 
1126 1130 
1126 1196 
1131 1137 
1131 1138 
1132 1139 
1132 1140 
1133 1137 
1133 1140 
1134 1138 
1134 1139 
1135 1137 
1135 1139 
1135 1245 
1136 1138 
1136 1140 
1136 1246 
1141 1147 
1141 1148 
1142 1149 
1142 1150 
1143 1147 
1143 1150 
1144 1148 
1144 1149 
1145 1147 
1145 1149 
1146 1148 
1146 1150 
1151 1157 
1151 1158 
1152 1159 
1152 1160 
1153 1157 
1153 1160 
1154 1158 
1154 1159 
1155 1157 
1155 1159 
1156 1158 
1156 1160 
1161 1167 
1161 1168 
1162 1169 
1162 1170 
1163 1167 
1163 1170 
1164 1168 
1164 1169 
1165 1167 
1165 1169 
1166 1168 
1166 1170 
1171 1177 
1171 1178 
1172 1179 
1172 1180 
1173 1177 
1173 1180 
1174 1178 
1174 1179 
1175 1177 
1175 1179 
1175 1205 
1176 1178 
1176 1180 
1176 1206 
1181 1187 
1181 1188 
1182 1189 
1182 1190 
1183 1187 
1183 1190 
1184 1188 
1184 1189 
1185 1187 
1185 1189 
1186 1188 
1186 1190 
1191 1197 
1191 1198 
1192 1199 
1192 1200 
1193 1197 
1193 1200 
1194 1198 
1194 1199 
1195 1197 
1195 1199 
1196 1198 
1196 1200 
1201 1207 
1201 1208 
1202 1209 
1202 1210 
1203 1207 
1203 1210 
1204 1208 
1204 1209 
1205 1207 
1205 1209 
1206 1208 
1206 1210 
1211 1217 
1211 1218 
1212 1219 
1212 1220 
1213 1217 
1213 1220 
1214 1218 
1214 1219 
1215 1217 
1215 1219 
1216 1218 
1216 1220 
1221 1227 
1221 1228 
1222 1229 
1222 1230 
1223 1227 
1223 1230 
1224 1228 
1224 1229 
1225 1227 
1225 1229 
1226 1228 
1226 1230 
1231 1237 
1231 1238 
1232 1239 
1232 1240 
1233 1237 
1233 1240 
1234 1238 
1234 1239 
1235 1237 
1235 1239 
1236 1238 
1236 1240 
1241 1247 
1241 1248 
1242 1249 
1242 1250 
1243 1247 
1243 1250 
1244 1248 
1244 1249 
1245 1247 
1245 1249 
1246 1248 
1246 1250 
1251 1257 
1251 1258 
1252 1259 
1252 1260 
1253 1257 
1253 1260 
1254 1258 
1254 1259 
1255 1257 
1255 1259 
1256 1258 
1256 1260 
1261 1267 
1261 1268 
1262 1269 
1262 1270 
1263 1267 
1263 1270 
1264 1268 
1264 1269 
1265 1267 
1265 1269 
1266 1268 
1266 1270 
1271 1277 
1271 1278 
1272 1279 
1272 1280 
1273 1277 
1273 1280 
1274 1278 
1274 1279 
1275 1277 
1275 1279 
1276 1278 
1276 1280 
